0000000000000000
0000111111110000
0001111111111100
0001111111111100
0001100001111110
0000000000111110
0000000000111110
0000000000011110
0000000000011110
0000000000111110
0000000001111110
0000111111111100
0000111111111100
0001111111110000
0000011110000000
0000000000000000
